p cnf 63 227
-3 -1 0
-3 2 0
1 -2 3 0
5 -3 0
5 4 0
3 -4 -5 0
-6 -5 0
-6 5 0
9 -1 0
9 -8 0
1 8 -9 0
10 -9 0
10 4 0
9 -4 -10 0
-7 10 -11 0
7 -10 -11 0
-7 -10 11 0
7 10 11 0
12 -6 0
12 11 0
6 -11 -12 0
14 13 0
14 13 0
-13 -14 0
16 -13 0
16 2 0
13 -2 -16 0
-17 -15 0
-17 -16 0
15 16 17 0
-18 14 0
-18 17 0
-14 -17 18 0
-19 18 0
-19 5 0
-18 -5 19 0
-20 14 0
-20 -3 0
-14 3 20 0
-10 20 -21 0
10 -20 -21 0
-10 -20 21 0
10 20 21 0
22 19 0
22 -21 0
-19 21 -22 0
2 -7 -23 0
-2 7 -23 0
2 7 23 0
-2 -7 23 0
24 5 0
24 16 0
-5 -16 -24 0
25 -23 0
25 24 0
23 -24 -25 0
22 -25 -26 0
-22 25 -26 0
22 25 26 0
-22 -25 26 0
-27 9 -28 0
27 -9 -28 0
-27 -9 28 0
27 9 28 0
30 -5 0
30 29 0
5 -29 -30 0
31 28 0
31 30 0
-28 -30 -31 0
-26 31 -32 0
26 -31 -32 0
-26 -31 32 0
26 31 32 0
-33 27 0
-33 -13 0
-27 13 33 0
34 2 0
34 33 0
-2 -33 -34 0
-1 -4 -35 0
1 4 -35 0
-1 4 35 0
1 -4 35 0
36 35 0
36 3 0
-35 -3 -36 0
-34 -36 -37 0
34 36 -37 0
-34 36 37 0
34 -36 37 0
-3 -5 -38 0
3 5 -38 0
-3 5 38 0
3 -5 38 0
-39 29 0
-39 -38 0
-29 38 39 0
-40 1 0
-40 -29 0
-1 29 40 0
-41 -39 0
-41 40 0
39 -40 41 0
-42 -2 0
-42 5 0
2 -5 42 0
-43 30 0
-43 42 0
-30 -42 43 0
-44 41 0
-44 43 0
-41 -43 44 0
37 -44 -45 0
-37 44 -45 0
37 44 45 0
-37 -44 45 0
-46 -14 0
-46 10 0
14 -10 46 0
47 -10 0
47 46 0
10 -46 -47 0
48 47 0
48 10 0
-47 -10 -48 0
47 -33 -49 0
-47 33 -49 0
47 33 49 0
-47 -33 49 0
50 48 0
50 49 0
-48 -49 -50 0
-51 -45 0
-51 50 0
45 -50 51 0
-52 40 0
-52 -5 0
-40 5 52 0
-54 -24 0
-54 53 0
24 -53 54 0
-55 -20 0
-55 -35 0
20 35 55 0
56 46 0
56 3 0
-46 -3 -56 0
-56 -35 -57 0
56 35 -57 0
-56 35 57 0
56 -35 57 0
58 -55 0
58 -57 0
55 57 -58 0
-54 58 -59 0
54 -58 -59 0
-54 -58 59 0
54 58 59 0
52 -59 -60 0
-52 59 -60 0
52 59 60 0
-52 -59 60 0
51 -60 -61 0
-51 60 -61 0
51 60 61 0
-51 -60 61 0
-62 -32 0
-62 -61 0
32 61 62 0
-12 -62 -63 0
12 62 -63 0
-12 62 63 0
12 -62 63 0
49 -11 -27 0
-33 26 0
-8 31 -13 -12 29 -37 0
-51 43 31 0
-45 -40 32 -22 -3 0
-24 31 25 -22 -3 -1 0
-34 18 16 51 -4 30 0
20 -21 -2 -1 13 43 0
53 7 34 0
-55 45 -56 0
-5 -51 -8 -6 0
27 -11 18 36 44 24 0
-28 -1 0
17 -33 -62 -53 -29 -58 0
-33 -49 47 -18 -50 7 0
-4 33 54 -61 0
-26 46 -53 -5 -57 0
-37 -54 9 32 1 0
-34 24 36 51 6 0
4 45 -26 0
-43 55 63 15 -53 0
-23 -3 -46 0
-61 47 -40 0
-58 4 26 44 0
61 -13 -29 6 4 0
42 -59 6 0
-50 28 -35 0
16 -31 -41 35 10 -14 0
37 -14 0
-37 -19 -42 38 0
-17 52 23 0
55 -45 -11 44 0
-41 40 -42 0
46 11 0
56 58 0
45 54 10 -44 0
33 7 0
-59 -16 0
22 40 4 56 1 0
61 60 -50 0
-8 45 -16 0
28 1 20 -58 -62 -12 0
18 27 47 -32 0
26 24 -61 -21 -25 43 0
-49 -42 37 8 38 0
21 34 -11 -15 -3 0
-4 -23 -34 -50 0
-6 24 0
-38 -30 57 59 -25 -49 0
-36 -60 14 49 -56 0
32 -55 -46 0
51 53 -43 50 46 -32 0
63 0
